networks/zoo_44_277/zoo_44_277.sol
<?xml version = "1.0" encoding="UTF-8" standalone="yes"?>
<CPLEXSolution version="1.2">
 <header
   problemName="networks/zoo_44_277/zoo_44_277.lp"
   solutionName="incumbent"
   solutionIndex="-1"
   objectiveValue="22"
   solutionTypeValue="3"
   solutionTypeString="primal"
   solutionStatusValue="101"
   solutionStatusString="integer optimal solution"
   solutionMethodString="mip"
   primalFeasible="1"
   dualFeasible="1"
   MIPNodes="1179"
   MIPIterations="77536"
   writeLevel="3"/>
 <quality
   epInt="1.0000000000000001e-05"
   epRHS="9.9999999999999995e-07"
   maxIntInfeas="0"
   maxPrimalInfeas="8.8817841970012523e-16"
   maxX="4"
   maxSlack="10"/>
 <variables>
  <variable name="Y(28,22)" index="1155" value="1"/>
  <variable name="Y(36,9)" index="1478" value="1"/>
  <variable name="Y(38,11)" index="1564" value="1"/>
  <variable name="Y(41,15)" index="1694" value="1"/>
  <variable name="Y(59,3)" index="2438" value="1"/>
  <variable name="Y(64,14)" index="2659" value="1"/>
  <variable name="Y(65,16)" index="2703" value="1"/>
  <variable name="Y(80,6)" index="3323" value="1"/>
  <variable name="Y(81,7)" index="3366" value="1"/>
  <variable name="Y(111,13)" index="4632" value="1"/>
  <variable name="Y(119,4)" index="4959" value="1"/>
  <variable name="Y(124,18)" index="5183" value="1"/>
  <variable name="Y(129,2)" index="5377" value="1"/>
  <variable name="Y(135,8)" index="5635" value="1"/>
  <variable name="Y(142,20)" index="5941" value="1"/>
  <variable name="Y(158,10)" index="6603" value="1"/>
  <variable name="Y(167,18)" index="6989" value="1"/>
  <variable name="Y(199,21)" index="8336" value="1"/>
  <variable name="Y(222,5)" index="9286" value="1"/>
  <variable name="Y(231,17)" index="9676" value="1"/>
  <variable name="Y(249,1)" index="10416" value="1"/>
  <variable name="Y(250,10)" index="10467" value="1"/>
  <variable name="X(1,4,158)" index="11791" value="1"/>
  <variable name="X(1,15,41)" index="11951" value="1"/>
  <variable name="X(1,16,65)" index="12252" value="1"/>
  <variable name="X(1,23,249)" index="12713" value="1"/>
  <variable name="X(2,4,119)" index="12860" value="1"/>
  <variable name="X(2,10,158)" index="13176" value="1"/>
  <variable name="X(2,24,129)" index="13424" value="1"/>
  <variable name="X(3,2,129)" index="13701" value="1"/>
  <variable name="X(3,4,135)" index="13984" value="1"/>
  <variable name="X(3,10,142)" index="14268" value="1"/>
  <variable name="X(3,13,28)" index="14431" value="1"/>
  <variable name="X(3,25,59)" index="14739" value="1"/>
  <variable name="X(4,1,65)" index="15022" value="1"/>
  <variable name="X(4,2,158)" index="15392" value="1"/>
  <variable name="X(4,3,59)" index="15570" value="1"/>
  <variable name="X(4,7,135)" index="15923" value="1"/>
  <variable name="X(4,26,119)" index="16184" value="1"/>
  <variable name="X(5,6,36)" index="16378" value="1"/>
  <variable name="X(5,8,81)" index="16700" value="1"/>
  <variable name="X(5,27,222)" index="17118" value="1"/>
  <variable name="X(6,5,81)" index="17254" value="1"/>
  <variable name="X(6,9,36)" index="17486" value="1"/>
  <variable name="X(6,28,80)" index="17807" value="1"/>
  <variable name="X(7,4,65)" index="18069" value="1"/>
  <variable name="X(7,8,135)" index="18416" value="1"/>
  <variable name="X(7,29,81)" index="18639" value="1"/>
  <variable name="X(8,5,222)" index="19057" value="1"/>
  <variable name="X(8,7,81)" index="19193" value="1"/>
  <variable name="X(8,30,135)" index="19524" value="1"/>
  <variable name="X(9,6,80)" index="19746" value="1"/>
  <variable name="X(9,31,36)" index="19979" value="1"/>
  <variable name="X(10,2,119)" index="20339" value="1"/>
  <variable name="X(10,3,250)" index="20747" value="1"/>
  <variable name="X(10,14,64)" index="20838" value="1"/>
  <variable name="X(10,20,142)" index="21193" value="1"/>
  <variable name="X(10,32,158)" index="21486" value="1"/>
  <variable name="X(11,22,111)" index="21716" value="1"/>
  <variable name="X(11,33,38)" index="21920" value="1"/>
  <variable name="X(12,22,124)" index="22283" value="1"/>
  <variable name="X(13,3,129)" index="22565" value="1"/>
  <variable name="X(13,14,28)" index="22741" value="1"/>
  <variable name="X(13,35,111)" index="23101" value="1"/>
  <variable name="X(14,10,250)" index="23517" value="1"/>
  <variable name="X(14,13,111)" index="23655" value="1"/>
  <variable name="X(14,21,28)" index="23849" value="1"/>
  <variable name="X(14,36,64)" index="24162" value="1"/>
  <variable name="X(15,1,158)" index="24533" value="1"/>
  <variable name="X(15,16,167)" index="24819" value="1"/>
  <variable name="X(15,37,41)" index="24970" value="1"/>
  <variable name="X(16,1,249)" index="25455" value="1"/>
  <variable name="X(16,17,167)" index="25650" value="1"/>
  <variable name="X(16,38,65)" index="25825" value="1"/>
  <variable name="X(17,16,249)" index="26286" value="1"/>
  <variable name="X(17,18,167)" index="26481" value="1"/>
  <variable name="X(17,20,199)" index="26790" value="1"/>
  <variable name="X(17,39,231)" index="27099" value="1"/>
  <variable name="X(18,17,231)" index="27376" value="1"/>
  <variable name="X(18,19,167)" index="27589" value="1"/>
  <variable name="X(18,40,124)" index="27823" value="1"/>
  <variable name="X(19,18,124)" index="28100" value="1"/>
  <variable name="X(19,20,119)" index="28372" value="1"/>
  <variable name="X(19,22,38)" index="28568" value="1"/>
  <variable name="X(20,10,119)" index="28926" value="1"/>
  <variable name="X(20,17,249)" index="29333" value="1"/>
  <variable name="X(20,19,38)" index="29399" value="1"/>
  <variable name="X(20,21,199)" index="29837" value="1"/>
  <variable name="X(20,42,142)" index="30057" value="1"/>
  <variable name="X(21,14,111)" index="30303" value="1"/>
  <variable name="X(21,20,249)" index="30718" value="1"/>
  <variable name="X(21,22,28)" index="30774" value="1"/>
  <variable name="X(21,43,199)" index="31222" value="1"/>
  <variable name="X(22,11,38)" index="31338" value="1"/>
  <variable name="X(22,19,124)" index="31701" value="1"/>
  <variable name="X(22,21,111)" index="31965" value="1"/>
  <variable name="X(22,44,28)" index="32159" value="1"/>
  <variable name="C(28,13)" index="32509" value="1"/>
  <variable name="C(28,14)" index="32510" value="2"/>
  <variable name="C(28,21)" index="32511" value="3"/>
  <variable name="C(28,22)" index="32512" value="4"/>
  <variable name="C(36,6)" index="32537" value="1"/>
  <variable name="C(36,9)" index="32538" value="2"/>
  <variable name="C(38,19)" index="32546" value="1"/>
  <variable name="C(38,22)" index="32547" value="2"/>
  <variable name="C(38,11)" index="32548" value="3"/>
  <variable name="C(41,15)" index="32558" value="1"/>
  <variable name="C(59,3)" index="32657" value="1"/>
  <variable name="C(64,14)" index="32676" value="1"/>
  <variable name="C(65,4)" index="32678" value="1"/>
  <variable name="C(65,1)" index="32679" value="2"/>
  <variable name="C(65,16)" index="32680" value="3"/>
  <variable name="C(80,6)" index="32767" value="1"/>
  <variable name="C(81,5)" index="32770" value="1"/>
  <variable name="C(81,8)" index="32771" value="2"/>
  <variable name="C(81,7)" index="32772" value="3"/>
  <variable name="C(111,22)" index="32940" value="1"/>
  <variable name="C(111,21)" index="32941" value="2"/>
  <variable name="C(111,14)" index="32942" value="3"/>
  <variable name="C(111,13)" index="32943" value="4"/>
  <variable name="C(119,20)" index="32977" value="1"/>
  <variable name="C(119,10)" index="32978" value="2"/>
  <variable name="C(119,2)" index="32979" value="3"/>
  <variable name="C(119,4)" index="32980" value="4"/>
  <variable name="C(124,22)" index="33002" value="1"/>
  <variable name="C(124,19)" index="33003" value="2"/>
  <variable name="C(124,18)" index="33004" value="3"/>
  <variable name="C(129,3)" index="33019" value="1"/>
  <variable name="C(129,2)" index="33020" value="2"/>
  <variable name="C(135,4)" index="33045" value="1"/>
  <variable name="C(135,7)" index="33046" value="2"/>
  <variable name="C(135,8)" index="33047" value="3"/>
  <variable name="C(142,10)" index="33076" value="1"/>
  <variable name="C(142,20)" index="33077" value="1.9999999999999991"/>
  <variable name="C(158,1)" index="33137" value="1"/>
  <variable name="C(158,4)" index="33138" value="2"/>
  <variable name="C(158,2)" index="33139" value="3"/>
  <variable name="C(158,10)" index="33140" value="4"/>
  <variable name="C(167,16)" index="33178" value="1"/>
  <variable name="C(167,17)" index="33179" value="2"/>
  <variable name="C(167,18)" index="33180" value="3"/>
  <variable name="C(199,20)" index="33313" value="1"/>
  <variable name="C(199,21)" index="33314" value="1.9999999999999998"/>
  <variable name="C(222,5)" index="33427" value="1"/>
  <variable name="C(231,17)" index="33471" value="1"/>
  <variable name="C(249,20)" index="33530" value="1"/>
  <variable name="C(249,17)" index="33531" value="2"/>
  <variable name="C(249,16)" index="33532" value="3"/>
  <variable name="C(249,1)" index="33533" value="4"/>
  <variable name="C(250,10)" index="33536" value="1"/>
 </variables>
</CPLEXSolution>
